Minimize
 obj: 0 X_0_1
Subject To
 out_0:
  + 1 X_0_1 + 1 X_0_2 + 1 X_0_3 + 1 X_0_4 + 1 X_0_5 + 1 X_0_6 + 1 X_0_7 + 1 X_0_8
  + 1 X_0_9
  = 1
 in_0:
  + 1 X_1_0 + 1 X_2_0 + 1 X_3_0 + 1 X_4_0 + 1 X_5_0 + 1 X_6_0 + 1 X_7_0 + 1 X_8_0
  + 1 X_9_0
  = 1
 out_1:
  + 1 X_1_0 + 1 X_1_2 + 1 X_1_3 + 1 X_1_4 + 1 X_1_5 + 1 X_1_6 + 1 X_1_7 + 1 X_1_8
  + 1 X_1_9
  = 1
 in_1:
  + 1 X_0_1 + 1 X_2_1 + 1 X_3_1 + 1 X_4_1 + 1 X_5_1 + 1 X_6_1 + 1 X_7_1 + 1 X_8_1
  + 1 X_9_1
  = 1
 out_2:
  + 1 X_2_0 + 1 X_2_1 + 1 X_2_3 + 1 X_2_4 + 1 X_2_5 + 1 X_2_6 + 1 X_2_7 + 1 X_2_8
  + 1 X_2_9
  = 1
 in_2:
  + 1 X_0_2 + 1 X_1_2 + 1 X_3_2 + 1 X_4_2 + 1 X_5_2 + 1 X_6_2 + 1 X_7_2 + 1 X_8_2
  + 1 X_9_2
  = 1
 out_3:
  + 1 X_3_0 + 1 X_3_1 + 1 X_3_2 + 1 X_3_4 + 1 X_3_5 + 1 X_3_6 + 1 X_3_7 + 1 X_3_8
  + 1 X_3_9
  = 1
 in_3:
  + 1 X_0_3 + 1 X_1_3 + 1 X_2_3 + 1 X_4_3 + 1 X_5_3 + 1 X_6_3 + 1 X_7_3 + 1 X_8_3
  + 1 X_9_3
  = 1
 out_4:
  + 1 X_4_0 + 1 X_4_1 + 1 X_4_2 + 1 X_4_3 + 1 X_4_5 + 1 X_4_6 + 1 X_4_7 + 1 X_4_8
  + 1 X_4_9
  = 1
 in_4:
  + 1 X_0_4 + 1 X_1_4 + 1 X_2_4 + 1 X_3_4 + 1 X_5_4 + 1 X_6_4 + 1 X_7_4 + 1 X_8_4
  + 1 X_9_4
  = 1
 out_5:
  + 1 X_5_0 + 1 X_5_1 + 1 X_5_2 + 1 X_5_3 + 1 X_5_4 + 1 X_5_6 + 1 X_5_7 + 1 X_5_8
  + 1 X_5_9
  = 1
 in_5:
  + 1 X_0_5 + 1 X_1_5 + 1 X_2_5 + 1 X_3_5 + 1 X_4_5 + 1 X_6_5 + 1 X_7_5 + 1 X_8_5
  + 1 X_9_5
  = 1
 out_6:
  + 1 X_6_0 + 1 X_6_1 + 1 X_6_2 + 1 X_6_3 + 1 X_6_4 + 1 X_6_5 + 1 X_6_7 + 1 X_6_8
  + 1 X_6_9
  = 1
 in_6:
  + 1 X_0_6 + 1 X_1_6 + 1 X_2_6 + 1 X_3_6 + 1 X_4_6 + 1 X_5_6 + 1 X_7_6 + 1 X_8_6
  + 1 X_9_6
  = 1
 out_7:
  + 1 X_7_0 + 1 X_7_1 + 1 X_7_2 + 1 X_7_3 + 1 X_7_4 + 1 X_7_5 + 1 X_7_6 + 1 X_7_8
  + 1 X_7_9
  = 1
 in_7:
  + 1 X_0_7 + 1 X_1_7 + 1 X_2_7 + 1 X_3_7 + 1 X_4_7 + 1 X_5_7 + 1 X_6_7 + 1 X_8_7
  + 1 X_9_7
  = 1
 out_8:
  + 1 X_8_0 + 1 X_8_1 + 1 X_8_2 + 1 X_8_3 + 1 X_8_4 + 1 X_8_5 + 1 X_8_6 + 1 X_8_7
  + 1 X_8_9
  = 1
 in_8:
  + 1 X_0_8 + 1 X_1_8 + 1 X_2_8 + 1 X_3_8 + 1 X_4_8 + 1 X_5_8 + 1 X_6_8 + 1 X_7_8
  + 1 X_9_8
  = 1
 out_9:
  + 1 X_9_0 + 1 X_9_1 + 1 X_9_2 + 1 X_9_3 + 1 X_9_4 + 1 X_9_5 + 1 X_9_6 + 1 X_9_7
  + 1 X_9_8
  = 1
 in_9:
  + 1 X_0_9 + 1 X_1_9 + 1 X_2_9 + 1 X_3_9 + 1 X_4_9 + 1 X_5_9 + 1 X_6_9 + 1 X_7_9
  + 1 X_8_9
  = 1
 mtz_1_2:
  + 1 U1 - 1 U2 + 9 X_1_2
  <= 8
 mtz_1_3:
  + 1 U1 - 1 U3 + 9 X_1_3
  <= 8
 mtz_1_4:
  + 1 U1 - 1 U4 + 9 X_1_4
  <= 8
 mtz_1_5:
  + 1 U1 - 1 U5 + 9 X_1_5
  <= 8
 mtz_1_6:
  + 1 U1 - 1 U6 + 9 X_1_6
  <= 8
 mtz_1_7:
  + 1 U1 - 1 U7 + 9 X_1_7
  <= 8
 mtz_1_8:
  + 1 U1 - 1 U8 + 9 X_1_8
  <= 8
 mtz_1_9:
  + 1 U1 - 1 U9 + 9 X_1_9
  <= 8
 mtz_2_1:
  + 1 U2 - 1 U1 + 9 X_2_1
  <= 8
 mtz_2_3:
  + 1 U2 - 1 U3 + 9 X_2_3
  <= 8
 mtz_2_4:
  + 1 U2 - 1 U4 + 9 X_2_4
  <= 8
 mtz_2_5:
  + 1 U2 - 1 U5 + 9 X_2_5
  <= 8
 mtz_2_6:
  + 1 U2 - 1 U6 + 9 X_2_6
  <= 8
 mtz_2_7:
  + 1 U2 - 1 U7 + 9 X_2_7
  <= 8
 mtz_2_8:
  + 1 U2 - 1 U8 + 9 X_2_8
  <= 8
 mtz_2_9:
  + 1 U2 - 1 U9 + 9 X_2_9
  <= 8
 mtz_3_1:
  + 1 U3 - 1 U1 + 9 X_3_1
  <= 8
 mtz_3_2:
  + 1 U3 - 1 U2 + 9 X_3_2
  <= 8
 mtz_3_4:
  + 1 U3 - 1 U4 + 9 X_3_4
  <= 8
 mtz_3_5:
  + 1 U3 - 1 U5 + 9 X_3_5
  <= 8
 mtz_3_6:
  + 1 U3 - 1 U6 + 9 X_3_6
  <= 8
 mtz_3_7:
  + 1 U3 - 1 U7 + 9 X_3_7
  <= 8
 mtz_3_8:
  + 1 U3 - 1 U8 + 9 X_3_8
  <= 8
 mtz_3_9:
  + 1 U3 - 1 U9 + 9 X_3_9
  <= 8
 mtz_4_1:
  + 1 U4 - 1 U1 + 9 X_4_1
  <= 8
 mtz_4_2:
  + 1 U4 - 1 U2 + 9 X_4_2
  <= 8
 mtz_4_3:
  + 1 U4 - 1 U3 + 9 X_4_3
  <= 8
 mtz_4_5:
  + 1 U4 - 1 U5 + 9 X_4_5
  <= 8
 mtz_4_6:
  + 1 U4 - 1 U6 + 9 X_4_6
  <= 8
 mtz_4_7:
  + 1 U4 - 1 U7 + 9 X_4_7
  <= 8
 mtz_4_8:
  + 1 U4 - 1 U8 + 9 X_4_8
  <= 8
 mtz_4_9:
  + 1 U4 - 1 U9 + 9 X_4_9
  <= 8
 mtz_5_1:
  + 1 U5 - 1 U1 + 9 X_5_1
  <= 8
 mtz_5_2:
  + 1 U5 - 1 U2 + 9 X_5_2
  <= 8
 mtz_5_3:
  + 1 U5 - 1 U3 + 9 X_5_3
  <= 8
 mtz_5_4:
  + 1 U5 - 1 U4 + 9 X_5_4
  <= 8
 mtz_5_6:
  + 1 U5 - 1 U6 + 9 X_5_6
  <= 8
 mtz_5_7:
  + 1 U5 - 1 U7 + 9 X_5_7
  <= 8
 mtz_5_8:
  + 1 U5 - 1 U8 + 9 X_5_8
  <= 8
 mtz_5_9:
  + 1 U5 - 1 U9 + 9 X_5_9
  <= 8
 mtz_6_1:
  + 1 U6 - 1 U1 + 9 X_6_1
  <= 8
 mtz_6_2:
  + 1 U6 - 1 U2 + 9 X_6_2
  <= 8
 mtz_6_3:
  + 1 U6 - 1 U3 + 9 X_6_3
  <= 8
 mtz_6_4:
  + 1 U6 - 1 U4 + 9 X_6_4
  <= 8
 mtz_6_5:
  + 1 U6 - 1 U5 + 9 X_6_5
  <= 8
 mtz_6_7:
  + 1 U6 - 1 U7 + 9 X_6_7
  <= 8
 mtz_6_8:
  + 1 U6 - 1 U8 + 9 X_6_8
  <= 8
 mtz_6_9:
  + 1 U6 - 1 U9 + 9 X_6_9
  <= 8
 mtz_7_1:
  + 1 U7 - 1 U1 + 9 X_7_1
  <= 8
 mtz_7_2:
  + 1 U7 - 1 U2 + 9 X_7_2
  <= 8
 mtz_7_3:
  + 1 U7 - 1 U3 + 9 X_7_3
  <= 8
 mtz_7_4:
  + 1 U7 - 1 U4 + 9 X_7_4
  <= 8
 mtz_7_5:
  + 1 U7 - 1 U5 + 9 X_7_5
  <= 8
 mtz_7_6:
  + 1 U7 - 1 U6 + 9 X_7_6
  <= 8
 mtz_7_8:
  + 1 U7 - 1 U8 + 9 X_7_8
  <= 8
 mtz_7_9:
  + 1 U7 - 1 U9 + 9 X_7_9
  <= 8
 mtz_8_1:
  + 1 U8 - 1 U1 + 9 X_8_1
  <= 8
 mtz_8_2:
  + 1 U8 - 1 U2 + 9 X_8_2
  <= 8
 mtz_8_3:
  + 1 U8 - 1 U3 + 9 X_8_3
  <= 8
 mtz_8_4:
  + 1 U8 - 1 U4 + 9 X_8_4
  <= 8
 mtz_8_5:
  + 1 U8 - 1 U5 + 9 X_8_5
  <= 8
 mtz_8_6:
  + 1 U8 - 1 U6 + 9 X_8_6
  <= 8
 mtz_8_7:
  + 1 U8 - 1 U7 + 9 X_8_7
  <= 8
 mtz_8_9:
  + 1 U8 - 1 U9 + 9 X_8_9
  <= 8
 mtz_9_1:
  + 1 U9 - 1 U1 + 9 X_9_1
  <= 8
 mtz_9_2:
  + 1 U9 - 1 U2 + 9 X_9_2
  <= 8
 mtz_9_3:
  + 1 U9 - 1 U3 + 9 X_9_3
  <= 8
 mtz_9_4:
  + 1 U9 - 1 U4 + 9 X_9_4
  <= 8
 mtz_9_5:
  + 1 U9 - 1 U5 + 9 X_9_5
  <= 8
 mtz_9_6:
  + 1 U9 - 1 U6 + 9 X_9_6
  <= 8
 mtz_9_7:
  + 1 U9 - 1 U7 + 9 X_9_7
  <= 8
 mtz_9_8:
  + 1 U9 - 1 U8 + 9 X_9_8
  <= 8
 obj1:
  + 391 X_0_1 + 230 X_0_2 + 188 X_0_3 + 629 X_0_4 + 436 X_0_5 + 390 X_0_6 + 732 X_0_7 + 716 X_0_8
  + 195 X_0_9 + 391 X_1_0 + 416 X_1_2 + 208 X_1_3 + 1000 X_1_4 + 73 X_1_5 + 767 X_1_6 + 1121 X_1_7
  + 838 X_1_8 + 312 X_1_9 + 230 X_2_0 + 416 X_2_1 + 295 X_2_3 + 784 X_2_4 + 484 X_2_5 + 548 X_2_6
  + 833 X_2_7 + 945 X_2_8 + 388 X_2_9 + 188 X_3_0 + 208 X_3_1 + 295 X_3_2 + 793 X_3_4 + 249 X_3_5
  + 559 X_3_6 + 913 X_3_7 + 720 X_3_8 + 138 X_3_9 + 629 X_4_0 + 1000 X_4_1 + 784 X_4_2 + 793 X_4_3
  + 1027 X_4_5 + 240 X_4_6 + 219 X_4_7 + 700 X_4_8 + 702 X_4_9 + 436 X_5_0 + 73 X_5_1 + 484 X_5_2
  + 249 X_5_3 + 1027 X_5_4 + 800 X_5_6 + 1159 X_5_7 + 811 X_5_8 + 327 X_5_9 + 390 X_6_0 + 767 X_6_1
  + 548 X_6_2 + 559 X_6_3 + 240 X_6_4 + 800 X_6_5 + 365 X_6_7 + 654 X_6_8 + 482 X_6_9 + 732 X_7_0
  + 1121 X_7_1 + 833 X_7_2 + 913 X_7_3 + 219 X_7_4 + 1159 X_7_5 + 365 X_7_6 + 919 X_7_8 + 847 X_7_9
  + 716 X_8_0 + 838 X_8_1 + 945 X_8_2 + 720 X_8_3 + 700 X_8_4 + 811 X_8_5 + 654 X_8_6 + 919 X_8_7
  + 584 X_8_9 + 195 X_9_0 + 312 X_9_1 + 388 X_9_2 + 138 X_9_3 + 702 X_9_4 + 327 X_9_5 + 482 X_9_6
  + 847 X_9_7 + 584 X_9_8
  <= 1
 obj2:
  + 206 X_0_1 + 741 X_0_2 + 696 X_0_3 + 856 X_0_4 + 333 X_0_5 + 207 X_0_6 + 730 X_0_7 + 261 X_0_8
  + 448 X_0_9 + 206 X_1_0 + 585 X_1_2 + 773 X_1_3 + 717 X_1_4 + 132 X_1_5 + 402 X_1_6 + 588 X_1_7
  + 369 X_1_8 + 376 X_1_9 + 741 X_2_0 + 585 X_2_1 + 812 X_2_3 + 149 X_2_4 + 472 X_2_5 + 946 X_2_6
  + 60 X_2_7 + 686 X_2_8 + 359 X_2_9 + 696 X_3_0 + 773 X_3_1 + 812 X_3_2 + 810 X_3_4 + 805 X_3_5
  + 767 X_3_6 + 757 X_3_7 + 434 X_3_8 + 516 X_3_9 + 856 X_4_0 + 717 X_4_1 + 149 X_4_2 + 810 X_4_3
  + 611 X_4_5 + 1057 X_4_6 + 129 X_4_7 + 764 X_4_8 + 435 X_4_9 + 333 X_5_0 + 132 X_5_1 + 472 X_5_2
  + 805 X_5_3 + 611 X_5_4 + 534 X_5_6 + 483 X_5_7 + 443 X_5_8 + 338 X_5_9 + 207 X_6_0 + 402 X_6_1
  + 946 X_6_2 + 767 X_6_3 + 1057 X_6_4 + 534 X_6_5 + 933 X_6_7 + 369 X_6_8 + 636 X_6_9 + 730 X_7_0
  + 588 X_7_1 + 60 X_7_2 + 757 X_7_3 + 129 X_7_4 + 483 X_7_5 + 933 X_7_6 + 655 X_7_8 + 325 X_7_9
  + 261 X_8_0 + 369 X_8_1 + 686 X_8_2 + 434 X_8_3 + 764 X_8_4 + 443 X_8_5 + 369 X_8_6 + 655 X_8_7
  + 330 X_8_9 + 448 X_9_0 + 376 X_9_1 + 359 X_9_2 + 516 X_9_3 + 435 X_9_4 + 338 X_9_5 + 636 X_9_6
  + 325 X_9_7 + 330 X_9_8
  <= 2
 obj3:
  + 128 X_0_1 + 441 X_0_2 + 241 X_0_3 + 245 X_0_4 + 455 X_0_5 + 724 X_0_6 + 366 X_0_7 + 62 X_0_8
  + 328 X_0_9 + 128 X_1_0 + 418 X_1_2 + 369 X_1_3 + 327 X_1_4 + 579 X_1_5 + 643 X_1_6 + 240 X_1_7
  + 100 X_1_8 + 255 X_1_9 + 441 X_2_0 + 418 X_2_1 + 557 X_2_3 + 330 X_2_4 + 796 X_2_5 + 369 X_2_6
  + 429 X_2_7 + 383 X_2_8 + 657 X_2_9 + 241 X_3_0 + 369 X_3_1 + 557 X_3_2 + 235 X_3_4 + 242 X_3_5
  + 898 X_3_6 + 606 X_3_7 + 283 X_3_8 + 533 X_3_9 + 245 X_4_0 + 327 X_4_1 + 330 X_4_2 + 235 X_4_3
  + 468 X_4_5 + 689 X_4_6 + 510 X_4_7 + 229 X_4_8 + 568 X_4_9 + 455 X_5_0 + 579 X_5_1 + 796 X_5_2
  + 242 X_5_3 + 468 X_5_4 + 1140 X_5_6 + 819 X_5_7 + 508 X_5_8 + 675 X_5_9 + 724 X_6_0 + 643 X_6_1
  + 369 X_6_2 + 898 X_6_3 + 689 X_6_4 + 1140 X_6_5 + 497 X_6_7 + 661 X_6_8 + 807 X_6_9 + 366 X_7_0
  + 240 X_7_1 + 429 X_7_2 + 606 X_7_3 + 510 X_7_4 + 819 X_7_5 + 497 X_7_6 + 324 X_7_8 + 313 X_7_9
  + 62 X_8_0 + 100 X_8_1 + 383 X_8_2 + 283 X_8_3 + 229 X_8_4 + 508 X_8_5 + 661 X_8_6 + 324 X_8_7
  + 340 X_8_9 + 328 X_9_0 + 255 X_9_1 + 657 X_9_2 + 533 X_9_3 + 568 X_9_4 + 675 X_9_5 + 807 X_9_6
  + 313 X_9_7 + 340 X_9_8
  <= 3
 obj4:
  + 780 X_0_1 + 669 X_0_2 + 406 X_0_3 + 949 X_0_4 + 625 X_0_5 + 983 X_0_6 + 481 X_0_7 + 969 X_0_8
  + 1101 X_0_9 + 780 X_1_0 + 118 X_1_2 + 374 X_1_3 + 308 X_1_4 + 404 X_1_5 + 220 X_1_6 + 331 X_1_7
  + 270 X_1_8 + 371 X_1_9 + 669 X_2_0 + 118 X_2_1 + 263 X_2_3 + 340 X_2_4 + 313 X_2_5 + 316 X_2_6
  + 249 X_2_7 + 328 X_2_8 + 449 X_2_9 + 406 X_3_0 + 374 X_3_1 + 263 X_3_2 + 569 X_3_4 + 337 X_3_5
  + 579 X_3_6 + 136 X_3_7 + 576 X_3_8 + 705 X_3_9 + 949 X_4_0 + 308 X_4_1 + 340 X_4_2 + 569 X_4_3
  + 372 X_4_5 + 198 X_4_6 + 588 X_4_7 + 77 X_4_8 + 182 X_4_9 + 625 X_5_0 + 404 X_5_1 + 313 X_5_2
  + 337 X_5_3 + 372 X_5_4 + 496 X_5_6 + 438 X_5_7 + 422 X_5_8 + 551 X_5_9 + 983 X_6_0 + 220 X_6_1
  + 316 X_6_2 + 579 X_6_3 + 198 X_6_4 + 496 X_6_5 + 551 X_6_7 + 122 X_6_8 + 160 X_6_9 + 481 X_7_0
  + 331 X_7_1 + 249 X_7_2 + 136 X_7_3 + 588 X_7_4 + 438 X_7_5 + 551 X_7_6 + 577 X_7_8 + 695 X_7_9
  + 969 X_8_0 + 270 X_8_1 + 328 X_8_2 + 576 X_8_3 + 77 X_8_4 + 422 X_8_5 + 122 X_8_6 + 577 X_8_7
  + 133 X_8_9 + 1101 X_9_0 + 371 X_9_1 + 449 X_9_2 + 705 X_9_3 + 182 X_9_4 + 551 X_9_5 + 160 X_9_6
  + 695 X_9_7 + 133 X_9_8
  <= 4
 obj5:
  + 948 X_0_1 + 659 X_0_2 + 880 X_0_3 + 751 X_0_4 + 828 X_0_5 + 737 X_0_6 + 963 X_0_7 + 982 X_0_8
  + 895 X_0_9 + 948 X_1_0 + 855 X_1_2 + 224 X_1_3 + 1006 X_1_4 + 727 X_1_5 + 643 X_1_6 + 568 X_1_7
  + 481 X_1_8 + 72 X_1_9 + 659 X_2_0 + 855 X_2_1 + 950 X_2_3 + 157 X_2_4 + 241 X_2_5 + 238 X_2_6
  + 475 X_2_7 + 553 X_2_8 + 782 X_2_9 + 880 X_3_0 + 224 X_3_1 + 950 X_3_2 + 1107 X_3_4 + 871 X_3_5
  + 771 X_3_6 + 754 X_3_7 + 678 X_3_8 + 257 X_3_9 + 751 X_4_0 + 1006 X_4_1 + 157 X_4_2 + 1107 X_4_3
  + 334 X_4_5 + 372 X_4_6 + 579 X_4_7 + 667 X_4_8 + 933 X_4_9 + 828 X_5_0 + 727 X_5_1 + 241 X_5_2
  + 871 X_5_3 + 334 X_5_4 + 114 X_5_6 + 245 X_5_7 + 334 X_5_8 + 657 X_5_9 + 737 X_6_0 + 643 X_6_1
  + 238 X_6_2 + 771 X_6_3 + 372 X_6_4 + 114 X_6_5 + 254 X_6_7 + 319 X_6_8 + 571 X_6_9 + 963 X_7_0
  + 568 X_7_1 + 475 X_7_2 + 754 X_7_3 + 579 X_7_4 + 245 X_7_5 + 254 X_7_6 + 100 X_7_8 + 508 X_7_9
  + 982 X_8_0 + 481 X_8_1 + 553 X_8_2 + 678 X_8_3 + 667 X_8_4 + 334 X_8_5 + 319 X_8_6 + 100 X_8_7
  + 425 X_8_9 + 895 X_9_0 + 72 X_9_1 + 782 X_9_2 + 257 X_9_3 + 933 X_9_4 + 657 X_9_5 + 571 X_9_6
  + 508 X_9_7 + 425 X_9_8
  <= 5
Bounds
 1 <= U1 <= 9
 1 <= U2 <= 9
 1 <= U3 <= 9
 1 <= U4 <= 9
 1 <= U5 <= 9
 1 <= U6 <= 9
 1 <= U7 <= 9
 1 <= U8 <= 9
 1 <= U9 <= 9
Binary
 X_0_1
 X_0_2
 X_0_3
 X_0_4
 X_0_5
 X_0_6
 X_0_7
 X_0_8
 X_0_9
 X_1_0
 X_1_2
 X_1_3
 X_1_4
 X_1_5
 X_1_6
 X_1_7
 X_1_8
 X_1_9
 X_2_0
 X_2_1
 X_2_3
 X_2_4
 X_2_5
 X_2_6
 X_2_7
 X_2_8
 X_2_9
 X_3_0
 X_3_1
 X_3_2
 X_3_4
 X_3_5
 X_3_6
 X_3_7
 X_3_8
 X_3_9
 X_4_0
 X_4_1
 X_4_2
 X_4_3
 X_4_5
 X_4_6
 X_4_7
 X_4_8
 X_4_9
 X_5_0
 X_5_1
 X_5_2
 X_5_3
 X_5_4
 X_5_6
 X_5_7
 X_5_8
 X_5_9
 X_6_0
 X_6_1
 X_6_2
 X_6_3
 X_6_4
 X_6_5
 X_6_7
 X_6_8
 X_6_9
 X_7_0
 X_7_1
 X_7_2
 X_7_3
 X_7_4
 X_7_5
 X_7_6
 X_7_8
 X_7_9
 X_8_0
 X_8_1
 X_8_2
 X_8_3
 X_8_4
 X_8_5
 X_8_6
 X_8_7
 X_8_9
 X_9_0
 X_9_1
 X_9_2
 X_9_3
 X_9_4
 X_9_5
 X_9_6
 X_9_7
 X_9_8
End
